solving instance uflp nlass holmberg 49 sincos
Set parameter TokenServer to value "licences.gerad.lan"
Set parameter MIPGap to value 1e-06
Set parameter FuncPieceError to value 1e-06
Set parameter Threads to value 1
Set parameter FuncPieces to value -2
Set parameter TimeLimit to value 3600
Gurobi Optimizer version 12.0.2 build v12.0.2rc0 (linux64 - "AlmaLinux 9.6 (Sage Margay)")

CPU model: Intel(R) Xeon(R) Gold 6258R CPU @ 2.70GHz, instruction set [SSE2|AVX|AVX2|AVX512]
Thread count: 56 physical cores, 56 logical processors, using up to 1 threads

Non-default parameters:
TimeLimit  3600
MIPGap  1e-06
Threads  1
FuncPieces  -2
FuncPieceError  1e-06

Optimize a model with 10570 rows, 14730 columns and 27300 nonzeros
Model fingerprint: 0x0af09afa
Model has 4200 function constraints treated as nonlinear
  2100 SIN, 2100 COS
Variable types: 12600 continuous, 2130 integer (2130 binary)
Coefficient statistics:
  Matrix range     [4e-02, 3e+02]
  Objective range  [1e+00, 5e+02]
  Bounds range     [1e+00, 1e+10]
  RHS range        [1e+00, 2e+02]
Warning: Model contains large bounds
         Consider reformulating model or setting NumericFocus parameter
         to avoid numerical issues.
Presolve removed 4200 rows and 4200 columns
Presolve time: 0.08s
Presolved: 39970 rows, 10531 columns, 81900 nonzeros
Presolved model has 4200 nonlinear constraint(s)

Solving non-convex MINLP

Variable types: 8401 continuous, 2130 integer (2130 binary)
Found heuristic solution: objective 13113.489422

Root relaxation: objective -7.105244e+03, 11154 iterations, 0.62 seconds (0.40 work units)

    Nodes    |    Current Node    |     Objective Bounds      |     Work
 Expl Unexpl |  Obj  Depth IntInf | Incumbent    BestBd   Gap | It/Node Time

     0     0 -7105.2436    0 4845 13113.4894 -7105.2436   154%     -    0s
H    0     0                    9750.2126780 -7105.2436   173%     -    1s
H    0     0                    9716.3968403 -7105.2436   173%     -    2s
H    0     0                    9626.0640768 -7105.2436   174%     -    2s
H    0     0                    9624.2078093 -7105.2436   174%     -    2s
H    0     0                    9207.3243713 -7105.2436   177%     -    2s
H    0     0                    8581.2993498 -7105.2436   183%     -    2s
H    0     0                    8581.2968043 -7105.2436   183%     -    2s
H    0     0                    8581.2966555 -7105.2436   183%     -    2s
H    0     0                    8578.7136417 -7105.2436   183%     -    2s
H    0     0                    8427.7284083 -7105.2436   184%     -    3s
H    0     0                    8427.5533308 -7105.2436   184%     -    3s
H    0     0                    8427.0668894 -7105.2436   184%     -    3s
H    0     0                    8427.0668263 -7105.2436   184%     -    3s
     0     0 -2630.2203    0 5437 8427.06683 -2630.2203   131%     -    6s
     0     0 -1575.7819    0 5774 8427.06683 -1575.7819   119%     -    7s
     0     0 -1152.6572    0 2399 8427.06683 -1152.6572   114%     -    8s
     0     0 -1081.0951    0 2360 8427.06683 -1081.0951   113%     -    8s
     0     0 -934.08264    0 2160 8427.06683 -934.08264   111%     -    9s
     0     0 -926.81905    0 2150 8427.06683 -926.81905   111%     -   11s
     0     0 -799.70384    0 2200 8427.06683 -799.70384   109%     -   13s
     0     0 -792.68606    0 2196 8427.06683 -792.68606   109%     -   13s
     0     0 -725.92233    0 2349 8427.06683 -725.92233   109%     -   14s
     0     0 -722.61806    0 2136 8427.06683 -722.61806   109%     -   15s
     0     0 -662.76557    0 2700 8427.06683 -662.76557   108%     -   17s
     0     0 -652.45193    0 2491 8427.06683 -652.45193   108%     -   18s
     0     0 -596.05466    0 2279 8427.06683 -596.05466   107%     -   19s
     0     0 -592.73508    0 2407 8427.06683 -592.73508   107%     -   21s
     0     0 -551.74828    0 2569 8427.06683 -551.74828   107%     -   22s
     0     0 -547.75793    0 2151 8427.06683 -547.75793   106%     -   23s
     0     0 -517.44477    0 2219 8427.06683 -517.44477   106%     -   23s
     0     0 -515.80706    0 2364 8427.06683 -515.80706   106%     -   24s
     0     0 -508.19297    0 2439 8427.06683 -508.19297   106%     -   25s
     0     0 -507.84508    0 2439 8427.06683 -507.84508   106%     -   25s
H    0     0                    8322.8664621 -507.84508   106%     -   31s
H    0     0                    8287.3623426 -507.84508   106%     -   31s
H    0     0                    8243.6591222 -507.84508   106%     -   32s
H    0     0                    8241.8028546 -507.84508   106%     -   32s
H    0     0                    8126.8100803 -507.84508   106%     -   32s
H    0     0                    8119.8753448 -507.84508   106%     -   33s
     0     2 -507.84508    0 2439 8119.87534 -507.84508   106%     -   33s
     1     3 -503.11988    1 2310 8119.87534 -504.64137   106%  6441   35s
    11    13 -474.57994    6 2311 8119.87534 -491.05510   106%  2084   41s
    23    25 -331.58742   12 1917 8119.87534 -491.05510   106%  1554   45s
H   52    52                    7959.9022254 -491.05510   106%   937   49s
H   52    52                    7904.2955873 -491.05510   106%   937   49s
H   52    52                    7902.8858746 -491.05510   106%   937   49s
H   52    52                    7786.0627913 -491.05510   106%   937   49s
H   52    52                    7781.9912610 -491.05510   106%   937   49s
H   52    52                    7769.8672680 -491.05510   106%   937   49s
H   52    52                    7769.1230097 -491.05510   106%   937   49s
H   52    52                    7767.5294215 -491.05510   106%   937   49s
    54    56 -289.47243   32 1064 7767.52942 -491.05510   106%   902   50s
H  104   104                    7430.5002620 -491.05510   107%   470   51s
H  104   104                    7396.0505362 -491.05510   107%   470   51s
H  104   104                    7395.4989095 -491.05510   107%   470   51s
H  104   104                    7374.3969506 -491.05510   107%   470   52s
H  104   104                    7373.0310179 -491.05510   107%   470   52s
H  104   104                    7348.8906788 -491.05510   107%   470   54s
H  104   104                    7341.4480965 -491.05510   107%   470   54s
   135   137 -277.56385  106 1042 7341.44810 -491.05510   107%   362   56s
   213   215 -271.61535  182  977 7341.44810 -491.05510   107%   230  100s
   216   218 -204.00213  184  975 7341.44810 -491.05510   107%   228  105s
H  240   240                    7337.8375407 -491.05510   107%   224  108s
   240   242  -18.90159  196  963 7337.83754 -491.05510   107%   224  111s
   270   272  224.96403  211  959 7337.83754 -491.05510   107%   202  115s
   356   358  753.59927  258  946 7337.83754 -491.05510   107%   155  120s
   432   434 1179.96816  300  919 7337.83754 -491.05510   107%   130  125s
   513   515 1651.55930  345  897 7337.83754 -491.05510   107%   111  130s
   666   668 2535.35295  429  863 7337.83754 -491.05510   107%  87.9  135s
   849   851 3553.57045  532  799 7337.83754 -491.05510   107%  71.3  140s
   959   961 4151.25205  593  751 7337.83754 -491.05510   107%  64.3  145s
   994   996 4324.24270  614  743 7337.83754 -491.05510   107%  62.4  152s
  1086  1088 4762.53629  664  701 7337.83754 -491.05510   107%  58.0  155s
H 1240  1240                    7337.7067506 -491.05510   107%  52.0  160s
  1331  1333 5828.71326  792  567 7337.70675 -491.05510   107%  49.1  165s
  1507  1509 6506.09040  884  485 7337.70675 -491.05510   107%  44.6  170s
  1684  1686 7086.27508  979  455 7337.70675 -491.05510   107%  40.8  175s
  1817  1815 7330.32242 1048  435 7337.70675 -491.05510   107%  38.8  180s
H 1824  1813                    7335.6992381 -490.77927   107%  39.5  183s
  1825  1814 4752.77031  664  636 7335.69924 -490.77927   107%  39.5  196s
  1827  1815 -331.45394   13 1688 7335.69924 -490.77927   107%  39.5  201s
  1828  1816 4336.75972  615 1402 7335.69924 -490.77927   107%  39.5  207s
  1830  1817 5591.44619  763  572 7335.69924 -438.14732   106%  39.4  214s
  1832  1819 1504.10811  333  576 7335.69924 -401.05568   105%  39.4  216s
  1836  1821 7142.50827  993  570 7335.69924 -349.97469   105%  39.3  220s
H 1837  1730                    7277.7389579 -327.68281   105%  39.3  223s
H 1837  1643                    7274.7388420 -327.68281   105%  39.3  225s
H 1837  1561                    7273.6968805 -327.68281   105%  39.3  225s
  1844  1566  291.30414  218  569 7273.69688 -307.46394   104%  39.1  230s
  1852  1571  -67.42799  193  426 7273.69688 -283.94773   104%  38.9  235s
  1861  1577 -282.22376   59  497 7273.69688 -282.22376   104%  38.8  240s
  1871  1585 7000.84982  961 1539 7273.69688 -282.22376   104%  59.8  248s
  1872  1586 6302.47663  852  787 7273.69688 -282.22376   104%  59.7  253s
  1874  1587 -274.39734  144  497 7273.69688 -282.22376   104%  59.7  256s
  1882  1593 6761.64274  921  285 7273.69688 -281.55772   104%  59.4  260s
  1886  1595 3833.97798  563  285 7273.69688 -281.55328   104%  59.3  265s
  1887  1596 1122.35013  294  285 7273.69688 -281.49026   104%  59.3  278s
  1888  1599 -269.54258   24 1952 7273.69688 -269.64786   104%  76.9  387s
  1889  1599 -229.76268   24 1950 7273.69688 -269.54258   104%  76.9  404s
  1890  1600 -218.06823   25 1949 7273.69688 -269.54258   104%  76.9  421s
  1891  1601 -257.69391   25 1955 7273.69688 -257.69391   104%  76.9  438s
  1892  1601 -245.90622   26 1955 7273.69688 -257.69391   104%  77.0  460s
  1893  1602 -207.54513   26 1952 7273.69688 -245.90622   103%  77.0  476s
  1894  1603 -199.08718   27 1738 7273.69688 -245.90622   103%  76.9  488s
  1895  1603 -234.38102   27 1955 7273.69688 -234.38102   103%  76.9  505s
  1896  1604 -223.06086   28 2022 7273.69688 -234.38102   103%  77.0  523s
  1897  1605 -188.93336   28 1956 7273.69688 -229.76268   103%  76.9  537s
  1898  1605 -171.69458   29 2021 7273.69688 -229.76268   103%  76.9  554s
  1899  1606 -211.58472   29 2022 7273.69688 -229.76268   103%  76.9  571s
  1900  1607 -200.36033   30 2019 7273.69688 -229.76268   103%  76.9  588s
  1901  1607 -164.08807   30 2022 7273.69688 -229.76268   103%  76.9  605s
  1902  1608 -152.56820   31 2019 7273.69688 -229.76268   103%  76.9  620s
  1903  1609 -189.09553   31 2018 7273.69688 -229.76268   103%  76.8  634s
  1904  1609 -178.09455   32 2016 7273.69688 -229.76268   103%  76.9  648s
  1905  1610 -141.35378   32 2018 7273.69688 -229.76268   103%  76.9  662s
  1906  1611 -128.56704   33 2016 7273.69688 -229.76268   103%  76.8  677s
  1907  1611 -166.90346   33 1804 7273.69688 -229.76268   103%  76.8  688s
  1908  1612 -155.94327   34 2010 7273.69688 -229.76268   103%  76.8  706s
  1909  1613 -119.80064   34 1804 7273.69688 -229.76268   103%  76.8  718s
  1910  1613 -107.26043   35 2014 7273.69688 -229.76268   103%  76.8  733s
  1911  1614 -144.86444   35 2009 7273.69688 -229.76268   103%  76.8  748s
  1912  1615 -134.04966   36 2008 7273.69688 -229.76268   103%  76.8  760s
H 1913  1532                    7264.6965327 -229.76268   103%  76.7  760s
  1913  1534  -96.85451   36 2011 7264.69653 -229.76268   103%  76.8  774s
  1914  1535  -86.73501   37 2008 7264.69653 -229.76268   103%  76.7  786s
  1915  1536 -123.32602   37 2215 7264.69653 -229.76268   103%  76.7  801s
  1916  1536 -119.00115   38 2011 7264.69653 -229.76268   103%  76.8  817s
  1917  1537  -76.87619   38 2006 7264.69653 -229.76268   103%  76.8  829s
  1918  1538  -71.40316   39 2011 7264.69653 -229.76268   103%  76.8  844s
  1919  1538 -108.26739   39 2004 7264.69653 -229.76268   103%  76.8  859s
  1920  1539  -97.37984   40 2003 7264.69653 -229.76268   103%  76.9  875s
  1921  1540  -61.25503   40 2009 7264.69653 -229.76268   103%  76.8  890s
  1922  1540  -50.73972   41 2002 7264.69653 -229.76268   103%  76.8  904s
  1923  1541  -87.81625   41 2072 7264.69653 -229.76268   103%  76.9  924s
  1924  1542  -76.68378   42 2482 7264.69653 -229.76268   103%  77.4  945s
  1925  1542  -42.11720   42 2070 7264.69653 -229.76268   103%  77.4  960s
  1926  1543  -31.72960   43 2482 7264.69653 -229.76268   103%  77.3  981s
  1927  1544  -66.32490   43 2479 7264.69653 -229.76268   103%  77.3 1001s
  1928  1544  -55.95189   44 2478 7264.69653 -229.76268   103%  77.3 1021s
  1929  1545  -20.00738   44 2477 7264.69653 -229.76268   103%  77.3 1042s
  1930  1546  -10.14210   45 2477 7264.69653 -229.76268   103%  77.7 1063s
  1931  1546  -45.60148   45 2475 7264.69653 -229.76268   103%  77.7 1083s
  1932  1547  -35.42868   46 2473 7264.69653 -229.76268   103%  77.7 1103s
  1933  1548   -1.27027   46 2475 7264.69653 -229.76268   103%  78.1 1123s
  1934  1548   10.71533   47 2473 7264.69653 -229.76268   103%  78.1 1143s
  1935  1549  -25.12635   47 2471 7264.69653 -229.76268   103%  78.1 1163s
  1936  1550  -14.98764   48 2401 7264.69653 -229.76268   103%  78.1 1183s
  1937  1550   18.28649   48 2471 7264.69653 -229.76268   103%  78.1 1201s
  1938  1551   30.57536   49 2398 7264.69653 -229.76268   103%  78.1 1221s
  1939  1552   -4.69608   49 2397 7264.69653 -229.76268   103%  78.1 1240s
  1940  1552    5.44964   50 2396 7264.69653 -229.76268   103%  78.1 1258s
  1941  1553   39.61416   50 2397 7264.69653 -229.76268   103%  78.1 1277s
  1942  1554   47.96768   51 2393 7264.69653 -229.76268   103%  78.1 1296s
  1943  1554   15.41803   51 2395 7264.69653 -229.76268   103%  78.1 1316s
  1944  1555   15.47360   52 2181 7264.69653 -229.76268   103%  78.1 1332s
  1945  1556   15.90175   52 2609 7264.69653 -229.76268   103%  79.8 1371s
  1946  1556   23.57942   53 2879 7264.69653 -229.76268   103%  80.6 1412s
  1947  1557   54.34060   53 2609 7264.69653 -229.76268   103%  80.6 1441s
  1948  1558   64.19932   54 2608 7264.69653 -229.76268   103%  80.7 1469s
  1949  1558   96.19207   54 2609 7264.69653 -229.76268   103%  80.6 1497s
  1950  1559  106.76115   55 2609 7264.69653 -229.76268   103%  80.6 1525s
  1951  1560   74.20399   55 2816 7264.69653 -229.76268   103%  80.6 1556s
  1952  1560   84.10659   56 2816 7264.69653 -229.76268   103%  80.6 1587s
  1953  1561  118.54085   56 2817 7264.69653 -229.76268   103%  80.6 1617s
  1954  1562  125.17884   57 2887 7264.69653 -229.76268   103%  80.6 1649s
  1955  1562   93.80383   57 2810 7264.69653 -229.76268   103%  80.6 1678s
  1956  1563  103.40479   58 2810 7264.69653 -229.76268   103%  80.6 1708s
  1957  1564  136.44058   58 2810 7264.69653 -229.76268   103%  80.6 1738s
  1958  1564  146.55193   59 2808 7264.69653 -229.76268   103%  80.6 1768s
  1959  1565  113.23117   59 2594 7264.69653 -229.76268   103%  80.6 1790s
  1960  1566  122.85946   60 2592 7264.69653 -229.76268   103%  80.6 1812s
  1961  1566  154.26808   60 2805 7264.69653 -229.76268   103%  80.7 1841s
  1962  1567  162.97751   61 2592 7264.69653 -229.76268   103%  80.6 1862s
  1963  1568  132.39766   61 2590 7264.69653 -229.76268   103%  80.6 1883s
  1964  1568  141.96588   62 2657 7264.69653 -229.76268   103%  80.6 1906s
H 1965  1491                    7244.5790786 -229.76268   103%  80.6 1907s
  1965  1493  173.80577   62 2590 7244.57908 -229.76268   103%  80.6 1931s
  1966  1494  184.30127   63 2659 7244.57908 -229.76268   103%  80.6 1954s
  1967  1494  151.76235   63 2657 7244.57908 -229.76268   103%  80.6 1978s
  1968  1495  161.25318   64 2444 7244.57908 -229.76268   103%  80.6 1998s
  1969  1496  191.73052   64 2657 7244.57908 -229.76268   103%  80.6 2021s
  1970  1496  203.22030   65 2444 7244.57908 -229.76268   103%  80.6 2041s
  1971  1497  170.65184   65 2442 7244.57908 -229.76268   103%  80.6 2061s
  1972  1498  180.21482   66 2440 7244.57908 -229.76268   103%  80.6 2080s
  1973  1498  211.38988   66 2442 7244.57908 -229.76268   103%  80.6 2100s
  1974  1499  222.41265   67 2440 7244.57908 -229.76268   103%  80.6 2118s
  1975  1500  189.76724   67 2648 7244.57908 -229.76268   103%  80.6 2142s
  1976  1500  199.43785   68 2649 7244.57908 -229.76268   103%  80.9 2167s
  1977  1501  233.18661   68 2648 7244.57908 -229.76268   103%  80.9 2190s
  1978  1502  241.63122   69 2645 7244.57908 -229.76268   103%  81.1 2216s
  1979  1502  208.96819   69 2647 7244.57908 -229.76268   103%  81.1 2239s
  1980  1503  218.40616   70 2223 7244.57908 -229.76268   103%  81.5 2254s
  1981  1504  248.64817   70 2648 7244.57908 -229.76268   103%  81.5 2277s
  1982  1504  260.03994   71 2433 7244.57908 -229.76268   103%  81.4 2296s
  1983  1505  227.67708   71 2704 7244.57908 -229.76268   103%  81.5 2320s
  1984  1506  236.84688   72 2492 7244.57908 -229.76268   103%  81.5 2339s
  1985  1506  266.27789   72 2918 7244.57908 -229.76268   103%  81.5 2369s
  1986  1507  276.04750   73 2702 7244.57908 -229.76268   103%  81.5 2394s
  1987  1508  246.14433   73 2490 7244.57908 -229.76268   103%  81.5 2415s
  1988  1508  254.72125   74 2699 7244.57908 -229.76268   103%  82.0 2443s
  1989  1509  281.19817   74 2490 7244.57908 -229.76268   103%  82.3 2465s
  1990  1510  295.15359   75 2699 7244.57908 -229.76268   103%  82.3 2491s
H 1991  1436                    7225.1179098 -229.76268   103%  82.3 2492s
H 1991  1367                    6916.5856135 -229.76268   103%  82.3 2494s
  1991  1369  263.86488   75 2699 6916.58561 -229.76268   103%  82.3 2521s
  1992  1370  272.94846   76 2486 6916.58561 -229.76268   103%  82.3 2540s
  1993  1371  302.65490   76 2695 6916.58561 -229.76268   103%  82.3 2562s
  1994  1371  310.32870   77 2485 6916.58561 -229.76268   103%  82.3 2580s
  1995  1372  281.96557   77 2484 6916.58561 -229.76268   103%  82.3 2597s
  1996  1373  291.01073   78 2480 6916.58561 -229.76268   103%  82.3 2611s
  1997  1373  319.58802   78 2484 6916.58561 -229.76268   103%  82.3 2630s
  1998  1374  329.92873   79 2269 6916.58561 -229.76268   103%  82.3 2640s
  1999  1375  300.02388   79 2690 6916.58561 -229.76268   103%  82.3 2663s
  2000  1375  309.06007   80 2690 6916.58561 -229.76268   103%  82.3 2689s
  2001  1376  337.85945   80 2477 6916.58561 -229.76268   103%  82.3 2706s
  2002  1377  347.32351   81 2690 6916.58561 -229.76268   103%  82.4 2728s
  2003  1377  317.91090   81 2686 6916.58561 -229.76268   103%  82.4 2750s
  2004  1378  320.12540   82 2476 6916.58561 -229.76268   103%  82.4 2769s
  2005  1379  318.75897   82 2545 6916.58561 -229.76268   103%  83.0 2789s
  2006  1379  357.10146   83 2476 6916.58561 -229.76268   103%  83.0 2802s
  2007  1380  329.00209   83 2474 6916.58561 -229.76268   103%  83.0 2815s
  2008  1381  334.95863   84 2677 6916.58561 -229.76268   103%  83.1 2833s
  2009  1381  365.79981   84 2472 6916.58561 -229.76268   103%  83.1 2846s
  2010  1382  372.89800   85 2677 6916.58561 -229.76268   103%  83.1 2864s
  2011  1383  344.00906   85 2675 6916.58561 -229.76268   103%  83.1 2883s
  2012  1383  352.95877   86 2725 6916.58561 -229.76268   103%  83.2 2902s
  2013  1384  381.71879   86 2675 6916.58561 -229.76268   103%  83.2 2923s
  2014  1385  389.87280   87 2514 6916.58561 -229.76268   103%  83.3 2936s
  2015  1385  361.69258   87 2723 6916.58561 -229.76268   103%  83.3 2955s
  2016  1386  366.19366   88 2865 6916.58561 -229.76268   103%  83.4 2980s
  2017  1387  400.36180   88 2671 6916.58561 -229.76268   103%  83.5 3003s
  2018  1387  400.27965   89 2857 6916.58561 -229.76268   103%  83.6 3027s
  2019  1388  368.91070   89 3071 6916.58561 -229.76268   103%  84.4 3067s
  2020  1389  446.89248   90 2857 6916.58561 -229.76268   103%  84.4 3091s
  2021  1389  410.88995   90 2857 6916.58561 -229.76268   103%  84.3 3113s
  2022  1390  421.38950   91 2856 6916.58561 -229.76268   103%  84.4 3136s
  2023  1391  455.81294   91 2857 6916.58561 -229.76268   103%  84.4 3159s
  2024  1391  466.25528   92 2856 6916.58561 -229.76268   103%  84.3 3184s
  2025  1392  431.52371   92 2854 6916.58561 -229.76268   103%  84.3 3207s
  2026  1393  441.59133   93 2852 6916.58561 -229.76268   103%  84.3 3230s
  2027  1393  475.88490   93 2853 6916.58561 -229.76268   103%  84.3 3253s
  2028  1394  481.81006   94 2851 6916.58561 -229.76268   103%  84.6 3280s
  2029  1395  451.70366   94 2849 6916.58561 -229.76268   103%  85.6 3312s
  2030  1395  461.21575   95 2845 6916.58561 -229.76268   103%  85.8 3342s
  2031  1396  493.75598   95 2849 6916.58561 -229.76268   103%  85.8 3372s
  2032  1397  499.93761   96 2845 6916.58561 -229.76268   103%  85.8 3402s
  2033  1397  470.60933   96 2845 6916.58561 -229.76268   103%  85.8 3440s
  2034  1398  474.14734   97 3050 6916.58561 -229.76268   103%  86.0 3480s
  2035  1399  497.49395   97 2782 6916.58561 -229.76268   103%  86.7 3507s
  2036  1399  506.59089   98 2779 6916.58561 -229.76268   103%  86.7 3531s
  2037  1400  534.47419   98 2781 6916.58561 -229.76268   103%  86.7 3553s
  2038  1401  545.78659   99 2779 6916.58561 -229.76268   103%  86.7 3570s
  2039  1401  515.63537   99 2778 6916.58561 -229.76268   103%  86.6 3587s
  2040  1402  523.78574  100 2776 6916.58561 -229.76268   103%  86.9 3600s

Cutting planes:
  Learned: 29
  Gomory: 83
  Implied bound: 2335
  Projected implied bound: 299
  MIR: 3
  Flow cover: 986
  Relax-and-lift: 8

Explored 2041 nodes (228423 simplex iterations) in 3600.01 seconds (1991.80 work units)
Thread count was 1 (of 56 available processors)

Solution count 10: 6916.59 7225.12 7244.58 ... 7337.84

Time limit reached
Best objective 6.916585613467e+03, best bound -2.297626778770e+02, gap 103.3219%

User-callback calls 80227, time in user-callback 0.31 sec
reading holmberg data file ../../../../../instances/uflp/holmberg/p49
primal_bound = 6916.585613467427, dual_bound = -229.76267787700635, gap = 103.32190896950124, time = 3600.03
